NAME : lr108.968961.tour
COMMENT : Cost = 0_968961
COMMENT : Found by LKH [Keld Helsgaun] Fri Sep 15 17:42:01 2017
TYPE : TOUR
DIMENSION : 109
TOUR_SECTION
1
13
81
25
30
80
10
52
82
34
4
78
29
105
3
58
16
44
43
88
42
23
75
74
22
27
106
71
31
21
67
66
72
36
35
79
69
109
53
19
83
9
47
37
48
20
49
8
102
7
97
60
100
94
6
85
18
46
84
61
90
107
28
70
2
51
77
54
95
96
98
14
59
41
103
73
76
57
24
68
40
56
5
26
55
104
32
89
63
12
50
65
64
91
33
11
108
93
99
92
45
15
39
87
17
62
86
101
38
-1
EOF
